Data path: /scratch/opt/lxu/CFLG/benchmarks/random_A
Instance: r_20_0.4_69.txt
Result path: /scratch/opt/lxu/CFLG/results/random_A
Solver: Gurobi
Time limit: 7200
Formulation: LEFPD
Cover: Large
julia --project=. src/main.jl /scratch/opt/lxu/CFLG/benchmarks/random_A r_20_0.4_69.txt /scratch/opt/lxu/CFLG/results/random_A Gurobi 7200 LEFPD Large
The latest version of Julia in the `release` channel is 1.11.5+0.x64.linux.gnu. You currently have `1.11.4+0.x64.linux.gnu` installed. Run:

  juliaup update

in your terminal shell to install Julia 1.11.5+0.x64.linux.gnu and update the `release` channel to that version.
/scratch/opt/lxu/CFLG/benchmarks/random_A Gurobi 7200.0 /scratch/opt/lxu/CFLG/results/random_A r_20_0.4_69.txt LEFPD Large
/scratch/opt/lxu/CFLG/benchmarks/random_A/r_20_0.4_69.txt

 read graph
data loaded

problem_graph/original graph: node: 20/20 edge: 69/69 dlt: 1.2450892085363634 break_avg_len: 0.6225446042681817 break_max_len: 0.9827397640132096Set parameter TokenServer to value "solice01.zib.de"
Set parameter Threads to value 1
Set parameter OutputFlag to value 1
Gurobi Optimizer version 12.0.1 build v12.0.1rc0 (linux64 - "Debian GNU/Linux 12 (bookworm)")

CPU model: Intel(R) Xeon(R) Gold 5222 CPU @ 3.80GHz, instruction set [SSE2|AVX|AVX2|AVX512]
Thread count: 8 physical cores, 16 logical processors, using up to 1 threads

Non-default parameters:
Threads  1

Optimize a model with 89 rows, 207 columns and 345 nonzeros
Model fingerprint: 0x2fd0d15a
Coefficient statistics:
  Matrix range     [1e+00, 1e+00]
  Objective range  [1e+00, 1e+00]
  Bounds range     [1e+00, 1e+00]
  RHS range        [0e+00, 0e+00]
Presolve removed 89 rows and 207 columns
Presolve time: 0.00s
Presolve: All rows and columns removed
Iteration    Objective       Primal Inf.    Dual Inf.      Time
       0   -0.0000000e+00   0.000000e+00   0.000000e+00      0s

Solved in 0 iterations and 0.00 seconds (0.00 work units)
Optimal objective -0.000000000e+00

User-callback calls 35, time in user-callback 0.00 sec
elapsed CPU time: 0.964827 seconds
Set parameter TokenServer to value "solice01.zib.de"
Set parameter Threads to value 1
Set parameter OutputFlag to value 1
Set parameter MIPGap to value 0.0001
Set parameter MIPGapAbs to value 0.999998
Set parameter TimeLimit to value 7199.035173

 more cuts:falsefalse
0 0
formulation:LEFPD0 69 20

 model loaded

Gurobi Optimizer version 12.0.1 build v12.0.1rc0 (linux64 - "Debian GNU/Linux 12 (bookworm)")

CPU model: Intel(R) Xeon(R) Gold 5222 CPU @ 3.80GHz, instruction set [SSE2|AVX|AVX2|AVX512]
Thread count: 8 physical cores, 16 logical processors, using up to 1 threads

Non-default parameters:
TimeLimit  7199.035173
MIPGapAbs  0.999998
Threads  1

Optimize a model with 8305 rows, 5322 columns and 24726 nonzeros
Model fingerprint: 0x22643a8a
Variable types: 2661 continuous, 2661 integer (2661 binary)
Coefficient statistics:
  Matrix range     [3e-04, 1e+00]
  Objective range  [1e+00, 1e+00]
  Bounds range     [3e-01, 1e+00]
  RHS range        [3e-01, 1e+01]
Found heuristic solution: objective 12.0000000
Presolve removed 2627 rows and 406 columns
Presolve time: 0.10s
Presolved: 5678 rows, 4916 columns, 21070 nonzeros
Variable types: 2425 continuous, 2491 integer (2491 binary)

Root relaxation: objective 6.735767e-01, 4249 iterations, 0.16 seconds (0.29 work units)

    Nodes    |    Current Node    |     Objective Bounds      |     Work
 Expl Unexpl |  Obj  Depth IntInf | Incumbent    BestBd   Gap | It/Node Time

     0     0    0.67358    0  239   12.00000    0.67358  94.4%     -    0s
H    0     0                       9.0000000    0.67358  92.5%     -    0s
     0     0    0.73173    0  218    9.00000    0.73173  91.9%     -    0s
     0     0    0.75248    0  179    9.00000    0.75248  91.6%     -    0s
     0     0    0.76220    0  205    9.00000    0.76220  91.5%     -    0s
H    0     0                       7.0000000    0.76276  89.1%     -    0s
H    0     0                       6.0000000    0.76276  87.3%     -    0s
     0     0    0.77351    0  180    6.00000    0.77351  87.1%     -    0s
     0     0    0.77744    0  266    6.00000    0.77744  87.0%     -    0s
     0     0    0.77880    0  208    6.00000    0.77880  87.0%     -    0s
     0     0    0.79687    0  311    6.00000    0.79687  86.7%     -    1s
     0     0    0.80807    0  277    6.00000    0.80807  86.5%     -    1s
     0     0    0.81911    0  250    6.00000    0.81911  86.3%     -    1s
     0     0    0.84357    0  284    6.00000    0.84357  85.9%     -    1s
     0     0    0.84357    0  308    6.00000    0.84357  85.9%     -    1s
     0     0    0.84357    0  321    6.00000    0.84357  85.9%     -    1s
     0     0    0.84357    0  274    6.00000    0.84357  85.9%     -    1s
     0     0    0.84357    0  279    6.00000    0.84357  85.9%     -    1s
     0     0    0.84357    0  278    6.00000    0.84357  85.9%     -    1s
     0     0    0.85010    0  300    6.00000    0.85010  85.8%     -    1s
     0     0    0.85010    0  360    6.00000    0.85010  85.8%     -    1s
     0     0    0.85796    0  375    6.00000    0.85796  85.7%     -    1s
     0     0    0.85796    0  344    6.00000    0.85796  85.7%     -    1s
     0     0    0.85796    0  375    6.00000    0.85796  85.7%     -    1s
     0     0    0.85796    0  444    6.00000    0.85796  85.7%     -    2s
     0     0    0.88450    0  445    6.00000    0.88450  85.3%     -    2s
     0     0    0.88450    0  421    6.00000    0.88450  85.3%     -    2s
     0     0    0.88450    0  406    6.00000    0.88450  85.3%     -    2s
     0     0    0.88450    0  465    6.00000    0.88450  85.3%     -    2s
     0     0    0.88450    0  434    6.00000    0.88450  85.3%     -    2s
     0     2    1.00000    0  428    6.00000    1.00000  83.3%     -    2s
H   26    24                       5.0000000    1.00000  80.0%   406    3s
H   26    24                       4.0000000    1.00000  75.0%   406    3s
H   26    22                       3.0000000    1.00000  66.7%   406    3s
H  108     8                       2.0000000    1.00000  50.0%   176    4s
   185    16    1.00000   10   96    2.00000    1.00000  50.0%   193    5s

Cutting planes:
  Cover: 20
  Implied bound: 13
  MIR: 34
  Flow cover: 9
  GUB cover: 1
  RLT: 30
  Relax-and-lift: 7
  BQP: 71

Explored 202 nodes (52134 simplex iterations) in 5.20 seconds (6.26 work units)
Thread count was 1 (of 16 available processors)

Solution count 8: 2 3 4 ... 12

Optimal solution found (tolerance 1.00e-04)
Best objective 2.000000000000e+00, best bound 2.000000000000e+00, gap 0.0000%

User-callback calls 2336, time in user-callback 0.00 sec

 sepatime0
2.0Stat(MathOptInterface.OPTIMAL, 2.0, 2.0, 0.0, 0.0, 0.964827, 5.195198059082031, 202, Main.CFLG.LEFPD, "", #undef)
